; SWAP2 PUSH cw_3 SWAP2 PUSH cw_2 SWAP2 SWAP1 => PUSH cw_2 SWAP1 SWAP3 PUSH cw_3 SWAP3
(set-option :produce-proofs true)
; 
(set-info :status unknown)
(declare-fun storage_t ((_ BitVec 256) (_ BitVec 256) (_ BitVec 256) (_ BitVec 256) (_ BitVec 256) Int (_ BitVec 256)) (_ BitVec 256))
(declare-fun w_2 () (_ BitVec 256))
(declare-fun w_3 () (_ BitVec 256))
(declare-fun storage_s ((_ BitVec 256) (_ BitVec 256) (_ BitVec 256) (_ BitVec 256) (_ BitVec 256) Int (_ BitVec 256)) (_ BitVec 256))
(declare-fun exc_halt_t (Int) Bool)
(declare-fun exc_halt_s (Int) Bool)
(declare-fun stack_t ((_ BitVec 256) (_ BitVec 256) (_ BitVec 256) (_ BitVec 256) (_ BitVec 256) Int (_ BitVec 6)) (_ BitVec 256))
(declare-fun stack_s ((_ BitVec 256) (_ BitVec 256) (_ BitVec 256) (_ BitVec 256) (_ BitVec 256) Int (_ BitVec 6)) (_ BitVec 256))
(declare-fun sc_t (Int) (_ BitVec 6))
(declare-fun sc_s (Int) (_ BitVec 6))
(declare-fun used_gas_t ((_ BitVec 256) (_ BitVec 256) (_ BitVec 256) (_ BitVec 256) (_ BitVec 256) Int) Int)
(declare-fun used_gas_s ((_ BitVec 256) (_ BitVec 256) (_ BitVec 256) (_ BitVec 256) (_ BitVec 256) Int) Int)
(assert
 (exists ((x_0 (_ BitVec 256)) (x_1 (_ BitVec 256)) (x_2 (_ BitVec 256)) )(let (($x4181 (forall ((w (_ BitVec 256)) )(let ((?x370 (storage_t x_0 x_1 x_2 w_3 w_2 5 w)))
 (let ((?x9222 (storage_s x_0 x_1 x_2 w_3 w_2 6 w)))
 (= ?x9222 ?x370))))
 ))
 (let (($x1885 (exc_halt_t 5)))
 (let (($x772 (exc_halt_s 6)))
 (let (($x11108 (= $x772 $x1885)))
 (let (($x9100 (forall ((n (_ BitVec 6)) )(let ((?x8137 (stack_t x_0 x_1 x_2 w_3 w_2 5 n)))
 (let ((?x1706 (stack_s x_0 x_1 x_2 w_3 w_2 6 n)))
 (let (($x6658 (= ?x1706 ?x8137)))
 (let ((?x8961 (sc_t 5)))
 (let (($x407 (bvsle ?x8961 n)))
 (or $x407 $x6658)))))))
 ))
 (let ((?x8961 (sc_t 5)))
 (let ((?x926 (sc_s 6)))
 (let (($x5889 (= ?x926 ?x8961)))
 (let ((?x10621 (used_gas_t x_0 x_1 x_2 w_3 w_2 0)))
 (let ((?x5990 (used_gas_s x_0 x_1 x_2 w_3 w_2 0)))
 (let (($x3694 (= ?x5990 ?x10621)))
 (let (($x5551 (forall ((w (_ BitVec 256)) )(let ((?x7056 (storage_t x_0 x_1 x_2 w_3 w_2 0 w)))
 (let ((?x10581 (storage_s x_0 x_1 x_2 w_3 w_2 0 w)))
 (= ?x10581 ?x7056))))
 ))
 (let (($x56 (exc_halt_t 0)))
 (let (($x57 (exc_halt_s 0)))
 (let (($x58 (= $x57 $x56)))
 (let (($x11223 (forall ((n (_ BitVec 6)) )(let ((?x9499 (stack_t x_0 x_1 x_2 w_3 w_2 0 n)))
 (let ((?x6017 (stack_s x_0 x_1 x_2 w_3 w_2 0 n)))
 (let (($x11477 (= ?x6017 ?x9499)))
 (let ((?x63 (sc_t 0)))
 (let (($x4912 (bvsle ?x63 n)))
 (or $x4912 $x11477)))))))
 ))
 (let ((?x63 (sc_t 0)))
 (let ((?x72 (sc_s 0)))
 (let (($x73 (= ?x72 ?x63)))
 (let (($x8432 (= $x1885 (or (exc_halt_t 4) (not (bvsle (_ bv0 6) (bvadd (_ bv60 6) (sc_t 4))))))))
 (let (($x1489 (forall ((w (_ BitVec 256)) )(let ((?x4999 (storage_t x_0 x_1 x_2 w_3 w_2 4 w)))
 (let ((?x370 (storage_t x_0 x_1 x_2 w_3 w_2 5 w)))
 (= ?x370 ?x4999))))
 ))
 (let (($x10352 (forall ((n (_ BitVec 6)) )(let ((?x2353 (stack_t x_0 x_1 x_2 w_3 w_2 4 n)))
 (let ((?x8137 (stack_t x_0 x_1 x_2 w_3 w_2 5 n)))
 (or (bvsle (bvadd (_ bv60 6) (sc_t 4)) n) (= ?x8137 ?x2353)))))
 ))
 (let (($x9243 (= (used_gas_t x_0 x_1 x_2 w_3 w_2 5) (+ 3 (used_gas_t x_0 x_1 x_2 w_3 w_2 4)))))
 (let (($x3639 (= (stack_t x_0 x_1 x_2 w_3 w_2 5 (bvadd (_ bv62 6) ?x8961)) (stack_t x_0 x_1 x_2 w_3 w_2 4 (bvadd (_ bv62 6) (sc_t 4))))))
 (let (($x1720 (= (stack_t x_0 x_1 x_2 w_3 w_2 5 (bvadd (_ bv61 6) ?x8961)) (stack_t x_0 x_1 x_2 w_3 w_2 4 (bvadd (_ bv61 6) (sc_t 4))))))
 (let (($x6489 (= (stack_t x_0 x_1 x_2 w_3 w_2 5 (bvadd (_ bv60 6) ?x8961)) (stack_t x_0 x_1 x_2 w_3 w_2 4 (bvadd (_ bv63 6) (sc_t 4))))))
 (let (($x3660 (= (stack_t x_0 x_1 x_2 w_3 w_2 5 (bvadd (_ bv63 6) ?x8961)) (stack_t x_0 x_1 x_2 w_3 w_2 4 (bvadd (_ bv60 6) (sc_t 4))))))
 (let (($x3614 (exc_halt_t 3)))
 (let (($x4281 (or $x3614 (not (= ((_ extract 6 6) (bvadd (_ bv1 7) (concat (_ bv0 1) (sc_t 3)))) (_ bv0 1))))))
 (let (($x7854 (exc_halt_t 4)))
 (let (($x5823 (forall ((w (_ BitVec 256)) )(let ((?x11629 (storage_t x_0 x_1 x_2 w_3 w_2 3 w)))
 (let ((?x4999 (storage_t x_0 x_1 x_2 w_3 w_2 4 w)))
 (= ?x4999 ?x11629))))
 ))
 (let (($x866 (forall ((n (_ BitVec 6)) )(let ((?x593 (stack_t x_0 x_1 x_2 w_3 w_2 3 n)))
 (let ((?x2353 (stack_t x_0 x_1 x_2 w_3 w_2 4 n)))
 (let ((?x11304 (sc_t 3)))
 (let (($x2531 (bvsle ?x11304 n)))
 (or $x2531 (= ?x2353 ?x593)))))))
 ))
 (let ((?x620 (used_gas_t x_0 x_1 x_2 w_3 w_2 4)))
 (let (($x11973 (= $x3614 (or (exc_halt_t 2) (not (bvsle (_ bv0 6) (bvadd (_ bv60 6) (sc_t 2))))))))
 (let (($x9917 (forall ((w (_ BitVec 256)) )(let ((?x7824 (storage_t x_0 x_1 x_2 w_3 w_2 2 w)))
 (let ((?x11629 (storage_t x_0 x_1 x_2 w_3 w_2 3 w)))
 (= ?x11629 ?x7824))))
 ))
 (let (($x203 (forall ((n (_ BitVec 6)) )(let ((?x6158 (sc_t 2)))
 (let ((?x1786 (bvadd (_ bv60 6) ?x6158)))
 (let (($x10162 (bvsle ?x1786 n)))
 (let ((?x2142 (stack_t x_0 x_1 x_2 w_3 w_2 2 n)))
 (let ((?x593 (stack_t x_0 x_1 x_2 w_3 w_2 3 n)))
 (or (= ?x593 ?x2142) $x10162)))))))
 ))
 (let ((?x6158 (sc_t 2)))
 (let ((?x11304 (sc_t 3)))
 (let (($x10184 (= ?x11304 ?x6158)))
 (let ((?x2175 (used_gas_t x_0 x_1 x_2 w_3 w_2 3)))
 (let ((?x5327 (bvadd (_ bv62 6) ?x6158)))
 (let ((?x3763 (stack_t x_0 x_1 x_2 w_3 w_2 2 ?x5327)))
 (let (($x9158 (= (stack_t x_0 x_1 x_2 w_3 w_2 3 (bvadd (_ bv62 6) ?x11304)) ?x3763)))
 (let (($x11662 (= (stack_t x_0 x_1 x_2 w_3 w_2 3 (bvadd (_ bv61 6) ?x11304)) (stack_t x_0 x_1 x_2 w_3 w_2 2 (bvadd (_ bv61 6) ?x6158)))))
 (let ((?x4024 (bvadd (_ bv63 6) ?x6158)))
 (let ((?x6631 (stack_t x_0 x_1 x_2 w_3 w_2 2 ?x4024)))
 (let (($x11756 (= (stack_t x_0 x_1 x_2 w_3 w_2 3 (bvadd (_ bv60 6) ?x11304)) ?x6631)))
 (let (($x886 (= (stack_t x_0 x_1 x_2 w_3 w_2 3 (bvadd (_ bv63 6) ?x11304)) (stack_t x_0 x_1 x_2 w_3 w_2 2 (bvadd (_ bv60 6) ?x6158)))))
 (let (($x4045 (exc_halt_t 2)))
 (let (($x8784 (= $x4045 (or (exc_halt_t 1) (not (bvsle (_ bv0 6) (bvadd (_ bv62 6) (sc_t 1))))))))
 (let (($x10606 (forall ((w (_ BitVec 256)) )(let ((?x8258 (storage_t x_0 x_1 x_2 w_3 w_2 1 w)))
 (let ((?x7824 (storage_t x_0 x_1 x_2 w_3 w_2 2 w)))
 (= ?x7824 ?x8258))))
 ))
 (let (($x46 (forall ((n (_ BitVec 6)) )(let ((?x9539 (stack_t x_0 x_1 x_2 w_3 w_2 1 n)))
 (let ((?x2142 (stack_t x_0 x_1 x_2 w_3 w_2 2 n)))
 (or (= ?x2142 ?x9539) (bvsle (bvadd (_ bv62 6) (sc_t 1)) n)))))
 ))
 (let ((?x7154 (sc_t 1)))
 (let (($x3248 (= ?x6158 ?x7154)))
 (let ((?x326 (used_gas_t x_0 x_1 x_2 w_3 w_2 2)))
 (let (($x5314 (= ?x3763 (stack_t x_0 x_1 x_2 w_3 w_2 1 (bvadd (_ bv63 6) ?x7154)))))
 (let (($x11573 (= ?x6631 (stack_t x_0 x_1 x_2 w_3 w_2 1 (bvadd (_ bv62 6) ?x7154)))))
 (let (($x8377 (exc_halt_t 1)))
 (let (($x10020 (= $x8377 (or $x56 (not (= ((_ extract 6 6) (bvadd (_ bv1 7) (concat (_ bv0 1) ?x63))) (_ bv0 1)))))))
 (let (($x7255 (forall ((w (_ BitVec 256)) )(let ((?x7056 (storage_t x_0 x_1 x_2 w_3 w_2 0 w)))
 (let ((?x8258 (storage_t x_0 x_1 x_2 w_3 w_2 1 w)))
 (= ?x8258 ?x7056))))
 ))
 (let (($x506 (forall ((n (_ BitVec 6)) )(let ((?x63 (sc_t 0)))
 (let (($x4912 (bvsle ?x63 n)))
 (let ((?x9499 (stack_t x_0 x_1 x_2 w_3 w_2 0 n)))
 (let ((?x9539 (stack_t x_0 x_1 x_2 w_3 w_2 1 n)))
 (or (= ?x9539 ?x9499) $x4912))))))
 ))
 (let (($x4376 (= ?x7154 (bvadd (_ bv1 6) ?x63))))
 (let (($x725 (= $x772 (or (exc_halt_s 5) (not (bvsle (_ bv0 6) (bvadd (_ bv62 6) (sc_s 5))))))))
 (let (($x7613 (forall ((w (_ BitVec 256)) )(let ((?x6555 (storage_s x_0 x_1 x_2 w_3 w_2 5 w)))
 (let ((?x9222 (storage_s x_0 x_1 x_2 w_3 w_2 6 w)))
 (= ?x9222 ?x6555))))
 ))
 (let (($x5023 (forall ((n (_ BitVec 6)) )(let ((?x1222 (stack_s x_0 x_1 x_2 w_3 w_2 5 n)))
 (let ((?x1706 (stack_s x_0 x_1 x_2 w_3 w_2 6 n)))
 (let ((?x4319 (sc_s 5)))
 (let ((?x4237 (bvadd (_ bv62 6) ?x4319)))
 (let (($x715 (bvsle ?x4237 n)))
 (or $x715 (= ?x1706 ?x1222))))))))
 ))
 (let ((?x4319 (sc_s 5)))
 (let (($x10715 (= ?x926 ?x4319)))
 (let (($x4764 (= (used_gas_s x_0 x_1 x_2 w_3 w_2 6) (+ 3 (used_gas_s x_0 x_1 x_2 w_3 w_2 5)))))
 (let ((?x8736 (bvadd (_ bv63 6) ?x4319)))
 (let ((?x11570 (stack_s x_0 x_1 x_2 w_3 w_2 5 ?x8736)))
 (let (($x8864 (= (stack_s x_0 x_1 x_2 w_3 w_2 6 (bvadd (_ bv62 6) ?x926)) ?x11570)))
 (let ((?x4237 (bvadd (_ bv62 6) ?x4319)))
 (let ((?x11848 (stack_s x_0 x_1 x_2 w_3 w_2 5 ?x4237)))
 (let (($x3724 (= (stack_s x_0 x_1 x_2 w_3 w_2 6 (bvadd (_ bv63 6) ?x926)) ?x11848)))
 (let (($x11317 (exc_halt_s 5)))
 (let (($x8386 (= $x11317 (or (exc_halt_s 4) (not (bvsle (_ bv0 6) (bvadd (_ bv61 6) (sc_s 4))))))))
 (let (($x5182 (forall ((w (_ BitVec 256)) )(let ((?x2113 (storage_s x_0 x_1 x_2 w_3 w_2 4 w)))
 (let ((?x6555 (storage_s x_0 x_1 x_2 w_3 w_2 5 w)))
 (= ?x6555 ?x2113))))
 ))
 (let (($x2670 (forall ((n (_ BitVec 6)) )(let ((?x4305 (sc_s 4)))
 (let ((?x5422 (bvadd (_ bv61 6) ?x4305)))
 (let (($x9395 (bvsle ?x5422 n)))
 (let ((?x2891 (stack_s x_0 x_1 x_2 w_3 w_2 4 n)))
 (let ((?x1222 (stack_s x_0 x_1 x_2 w_3 w_2 5 n)))
 (or (= ?x1222 ?x2891) $x9395)))))))
 ))
 (let ((?x4305 (sc_s 4)))
 (let (($x11146 (= ?x4319 ?x4305)))
 (let ((?x6777 (used_gas_s x_0 x_1 x_2 w_3 w_2 5)))
 (let (($x907 (= ?x11848 (stack_s x_0 x_1 x_2 w_3 w_2 4 (bvadd (_ bv62 6) ?x4305)))))
 (let (($x6370 (= (stack_s x_0 x_1 x_2 w_3 w_2 5 (bvadd (_ bv61 6) ?x4319)) (stack_s x_0 x_1 x_2 w_3 w_2 4 (bvadd (_ bv63 6) ?x4305)))))
 (let (($x9247 (= ?x11570 (stack_s x_0 x_1 x_2 w_3 w_2 4 (bvadd (_ bv61 6) ?x4305)))))
 (let (($x292 (exc_halt_s 3)))
 (let (($x2443 (or $x292 (not (= ((_ extract 6 6) (bvadd (_ bv1 7) (concat (_ bv0 1) (sc_s 3)))) (_ bv0 1))))))
 (let (($x7172 (exc_halt_s 4)))
 (let (($x2727 (forall ((w (_ BitVec 256)) )(let ((?x2846 (storage_s x_0 x_1 x_2 w_3 w_2 3 w)))
 (let ((?x2113 (storage_s x_0 x_1 x_2 w_3 w_2 4 w)))
 (= ?x2113 ?x2846))))
 ))
 (let (($x8756 (forall ((n (_ BitVec 6)) )(let ((?x4087 (stack_s x_0 x_1 x_2 w_3 w_2 3 n)))
 (let ((?x2891 (stack_s x_0 x_1 x_2 w_3 w_2 4 n)))
 (or (bvsle (sc_s 3) n) (= ?x2891 ?x4087)))))
 ))
 (let ((?x6656 (used_gas_s x_0 x_1 x_2 w_3 w_2 4)))
 (let (($x4827 (= $x292 (or (exc_halt_s 2) (not (bvsle (_ bv0 6) (bvadd (_ bv61 6) (sc_s 2))))))))
 (let (($x2527 (forall ((w (_ BitVec 256)) )(let ((?x661 (storage_s x_0 x_1 x_2 w_3 w_2 2 w)))
 (let ((?x2846 (storage_s x_0 x_1 x_2 w_3 w_2 3 w)))
 (= ?x2846 ?x661))))
 ))
 (let (($x4141 (forall ((n (_ BitVec 6)) )(let ((?x3317 (stack_s x_0 x_1 x_2 w_3 w_2 2 n)))
 (let ((?x4087 (stack_s x_0 x_1 x_2 w_3 w_2 3 n)))
 (or (= ?x4087 ?x3317) (bvsle (bvadd (_ bv61 6) (sc_s 2)) n)))))
 ))
 (let ((?x11020 (used_gas_s x_0 x_1 x_2 w_3 w_2 3)))
 (let (($x1600 (= (stack_s x_0 x_1 x_2 w_3 w_2 3 (bvadd (_ bv62 6) (sc_s 3))) (stack_s x_0 x_1 x_2 w_3 w_2 2 (bvadd (_ bv62 6) (sc_s 2))))))
 (let (($x4561 (= (stack_s x_0 x_1 x_2 w_3 w_2 3 (bvadd (_ bv61 6) (sc_s 3))) (stack_s x_0 x_1 x_2 w_3 w_2 2 (bvadd (_ bv63 6) (sc_s 2))))))
 (let (($x470 (= (stack_s x_0 x_1 x_2 w_3 w_2 3 (bvadd (_ bv63 6) (sc_s 3))) (stack_s x_0 x_1 x_2 w_3 w_2 2 (bvadd (_ bv61 6) (sc_s 2))))))
 (let (($x9102 (not (= ((_ extract 6 6) (bvadd (_ bv1 7) (concat (_ bv0 1) (sc_s 1)))) (_ bv0 1)))))
 (let (($x189 (exc_halt_s 1)))
 (let (($x247 (exc_halt_s 2)))
 (let (($x3039 (= $x247 (or $x189 $x9102))))
 (let (($x3433 (forall ((w (_ BitVec 256)) )(let ((?x255 (storage_s x_0 x_1 x_2 w_3 w_2 1 w)))
 (let ((?x661 (storage_s x_0 x_1 x_2 w_3 w_2 2 w)))
 (= ?x661 ?x255))))
 ))
 (let (($x3623 (forall ((n (_ BitVec 6)) )(let ((?x10959 (stack_s x_0 x_1 x_2 w_3 w_2 1 n)))
 (let ((?x3317 (stack_s x_0 x_1 x_2 w_3 w_2 2 n)))
 (let ((?x154 (sc_s 1)))
 (let (($x674 (bvsle ?x154 n)))
 (or $x674 (= ?x3317 ?x10959)))))))
 ))
 (let ((?x218 (sc_s 2)))
 (let (($x4816 (= ?x218 (bvadd (_ bv1 6) (sc_s 1)))))
 (let ((?x10566 (used_gas_s x_0 x_1 x_2 w_3 w_2 2)))
 (let (($x7047 (forall ((w (_ BitVec 256)) )(let ((?x10581 (storage_s x_0 x_1 x_2 w_3 w_2 0 w)))
 (let ((?x255 (storage_s x_0 x_1 x_2 w_3 w_2 1 w)))
 (= ?x255 ?x10581))))
 ))
 (let (($x966 (forall ((n (_ BitVec 6)) )(let ((?x6017 (stack_s x_0 x_1 x_2 w_3 w_2 0 n)))
 (let ((?x10959 (stack_s x_0 x_1 x_2 w_3 w_2 1 n)))
 (or (bvsle (bvadd (_ bv61 6) (sc_s 0)) n) (= ?x10959 ?x6017)))))
 ))
 (let (($x6038 (= (stack_s x_0 x_1 x_2 w_3 w_2 1 (bvadd (_ bv62 6) (sc_s 1))) (stack_s x_0 x_1 x_2 w_3 w_2 0 (bvadd (_ bv62 6) ?x72)))))
 (let (($x11665 (= (stack_s x_0 x_1 x_2 w_3 w_2 1 (bvadd (_ bv61 6) (sc_s 1))) (stack_s x_0 x_1 x_2 w_3 w_2 0 (bvadd (_ bv63 6) ?x72)))))
 (let (($x3592 (= (stack_s x_0 x_1 x_2 w_3 w_2 1 (bvadd (_ bv63 6) (sc_s 1))) (stack_s x_0 x_1 x_2 w_3 w_2 0 (bvadd (_ bv61 6) ?x72)))))
 (let (($x7526 (forall ((w (_ BitVec 256)) )(let ((?x10581 (storage_s x_0 x_1 x_2 w_3 w_2 0 w)))
 (= ?x10581 (_ bv0 256))))
 ))
 (let (($x5120 (= ?x5990 0)))
 (let (($x2084 (not $x57)))
 (let (($x4414 (= (stack_s x_0 x_1 x_2 w_3 w_2 0 (_ bv2 6)) x_2)))
 (let (($x10247 (= (stack_s x_0 x_1 x_2 w_3 w_2 0 (_ bv1 6)) x_1)))
 (let (($x8227 (= (stack_s x_0 x_1 x_2 w_3 w_2 0 (_ bv0 6)) x_0)))
 (let (($x7781 (= ?x72 (_ bv3 6))))
 (and $x7781 $x8227 $x10247 $x4414 $x2084 $x5120 $x7526 $x3592 $x11665 $x6038 (= (used_gas_s x_0 x_1 x_2 w_3 w_2 1) (+ 3 ?x5990)) (= (sc_s 1) ?x72) $x966 $x7047 (= $x189 (or $x57 (not (bvsle (_ bv0 6) (bvadd (_ bv61 6) ?x72))))) (= (stack_s x_0 x_1 x_2 w_3 w_2 2 (sc_s 1)) w_3) (= ?x10566 (+ 3 (used_gas_s x_0 x_1 x_2 w_3 w_2 1))) $x4816 $x3623 $x3433 $x3039 $x470 $x4561 $x1600 (= ?x11020 (+ 3 ?x10566)) (= (sc_s 3) ?x218) $x4141 $x2527 $x4827 (= (stack_s x_0 x_1 x_2 w_3 w_2 4 (sc_s 3)) w_2) (= ?x6656 (+ 3 ?x11020)) (= ?x4305 (bvadd (_ bv1 6) (sc_s 3))) $x8756 $x2727 (= $x7172 $x2443) $x9247 $x6370 $x907 (= ?x6777 (+ 3 ?x6656)) $x11146 $x2670 $x5182 $x8386 $x3724 $x8864 $x4764 $x10715 $x5023 $x7613 $x725 (= (stack_t x_0 x_1 x_2 w_3 w_2 1 ?x63) w_2) (= (used_gas_t x_0 x_1 x_2 w_3 w_2 1) (+ 3 ?x10621)) $x4376 $x506 $x7255 $x10020 $x11573 $x5314 (= ?x326 (+ 3 (used_gas_t x_0 x_1 x_2 w_3 w_2 1))) $x3248 $x46 $x10606 $x8784 $x886 $x11756 $x11662 $x9158 (= ?x2175 (+ 3 ?x326)) $x10184 $x203 $x9917 $x11973 (= (stack_t x_0 x_1 x_2 w_3 w_2 4 ?x11304) w_3) (= ?x620 (+ 3 ?x2175)) (= (sc_t 4) (bvadd (_ bv1 6) ?x11304)) $x866 $x5823 (= $x7854 $x4281) $x3660 $x6489 $x1720 $x3639 $x9243 (= ?x8961 (sc_t 4)) $x10352 $x1489 $x8432 $x73 $x11223 $x58 $x5551 $x3694 (not (and $x5889 $x9100 $x11108 $x4181))))))))))))))))))))))))))))))))))))))))))))))))))))))))))))))))))))))))))))))))))))))))))))))))))))))))))))))))))))))))))
 )
(check-sat)
(get-proof)
